c File:  mulsol.i.2.col
c
c SOURCE: Gary Lewandowski (gary@cs.wisc.edu)
c
c DESCRIPTION: Coloring problem generated from a register allocation
c              problem based on real code.
c
c graph #2 from register allocation file mulsol.i
p edge 188 3885
e 2 1
e 3 1
e 3 2
e 4 1
e 4 2
e 4 3
e 5 1
e 5 2
e 5 3
e 5 4
e 6 1
e 6 2
e 6 3
e 6 4
e 6 5
e 7 1
e 7 2
e 7 3
e 7 4
e 7 5
e 7 6
e 8 1
e 8 2
e 8 3
e 8 4
e 8 5
e 8 6
e 8 7
e 9 1
e 9 2
e 9 3
e 9 4
e 9 5
e 9 6
e 9 7
e 9 8
e 10 1
e 10 2
e 10 3
e 10 4
e 10 5
e 10 6
e 10 7
e 10 8
e 10 9
e 11 1
e 11 2
e 11 3
e 11 4
e 11 5
e 11 6
e 11 7
e 11 8
e 11 9
e 11 10
e 12 1
e 12 2
e 12 3
e 12 4
e 12 5
e 12 6
e 12 7
e 12 8
e 12 9
e 12 10
e 12 11
e 13 1
e 13 2
e 13 3
e 13 4
e 13 5
e 13 6
e 13 7
e 13 8
e 13 9
e 13 10
e 13 11
e 13 12
e 14 1
e 14 2
e 14 3
e 14 4
e 14 5
e 14 6
e 14 7
e 14 8
e 14 9
e 14 10
e 14 11
e 14 12
e 14 13
e 15 1
e 15 2
e 15 3
e 15 4
e 15 5
e 15 6
e 15 7
e 15 8
e 15 9
e 15 10
e 15 11
e 15 12
e 15 13
e 15 14
e 16 1
e 16 2
e 16 3
e 16 4
e 16 5
e 16 6
e 16 7
e 16 8
e 16 9
e 16 10
e 16 11
e 16 12
e 16 13
e 16 14
e 16 15
e 18 17
e 19 17
e 19 18
e 20 17
e 20 18
e 20 19
e 21 17
e 21 18
e 21 19
e 21 20
e 22 17
e 22 18
e 22 19
e 22 20
e 22 21
e 23 17
e 23 18
e 23 19
e 23 20
e 23 21
e 23 22
e 24 17
e 24 18
e 24 19
e 24 20
e 24 21
e 24 22
e 24 23
e 25 17
e 25 18
e 25 19
e 25 20
e 25 21
e 25 22
e 25 23
e 25 24
e 26 17
e 26 18
e 26 19
e 26 20
e 26 21
e 26 22
e 26 23
e 26 24
e 26 25
e 27 17
e 27 18
e 27 19
e 27 20
e 27 21
e 27 22
e 27 23
e 27 24
e 27 25
e 27 26
e 28 17
e 28 18
e 28 19
e 28 20
e 28 21
e 28 22
e 28 23
e 28 24
e 28 25
e 28 26
e 28 27
e 29 17
e 29 18
e 29 19
e 29 20
e 29 21
e 29 22
e 29 23
e 29 24
e 29 25
e 29 26
e 29 27
e 29 28
e 30 17
e 30 18
e 30 19
e 30 20
e 30 21
e 30 22
e 30 23
e 30 24
e 30 25
e 30 26
e 30 27
e 30 28
e 30 29
e 31 17
e 31 18
e 31 19
e 31 20
e 31 21
e 31 22
e 31 23
e 31 24
e 31 25
e 31 26
e 31 27
e 31 28
e 31 29
e 31 30
e 32 17
e 32 18
e 32 19
e 32 20
e 32 21
e 32 22
e 32 23
e 32 24
e 32 25
e 32 26
e 32 27
e 32 28
e 32 29
e 32 30
e 32 31
e 33 1
e 33 2
e 33 3
e 33 4
e 33 5
e 33 6
e 33 7
e 33 8
e 33 9
e 33 10
e 33 11
e 33 12
e 33 13
e 33 14
e 33 15
e 33 16
e 33 17
e 34 1
e 34 2
e 34 17
e 34 18
e 34 19
e 34 20
e 34 21
e 34 22
e 34 23
e 34 24
e 34 25
e 34 26
e 34 27
e 34 28
e 34 29
e 34 30
e 34 31
e 34 32
e 35 1
e 35 2
e 35 17
e 35 18
e 35 19
e 35 20
e 35 21
e 35 22
e 35 23
e 35 24
e 35 25
e 35 26
e 35 27
e 35 28
e 35 29
e 35 30
e 35 31
e 35 32
e 36 1
e 36 2
e 36 17
e 36 18
e 36 19
e 36 20
e 36 21
e 36 22
e 36 23
e 36 24
e 36 25
e 36 26
e 36 27
e 36 28
e 36 29
e 36 30
e 36 31
e 36 32
e 37 1
e 37 2
e 37 17
e 37 18
e 37 19
e 37 20
e 37 21
e 37 22
e 37 23
e 37 24
e 37 25
e 37 26
e 37 27
e 37 28
e 37 29
e 37 30
e 37 31
e 37 32
e 38 1
e 38 2
e 38 3
e 38 5
e 38 6
e 38 7
e 38 8
e 38 9
e 38 10
e 38 11
e 38 12
e 38 13
e 38 14
e 38 16
e 38 17
e 38 18
e 38 19
e 38 20
e 38 21
e 38 22
e 38 23
e 38 24
e 38 25
e 38 26
e 38 27
e 38 28
e 38 29
e 38 30
e 38 31
e 38 32
e 39 1
e 39 2
e 39 3
e 39 6
e 39 7
e 39 8
e 39 9
e 39 10
e 39 11
e 39 12
e 39 13
e 39 14
e 39 16
e 39 17
e 39 18
e 39 19
e 39 20
e 39 21
e 39 22
e 39 23
e 39 24
e 39 25
e 39 26
e 39 27
e 39 28
e 39 29
e 39 30
e 39 31
e 39 32
e 40 1
e 40 2
e 40 3
e 40 7
e 40 8
e 40 9
e 40 10
e 40 11
e 40 12
e 40 13
e 40 14
e 40 16
e 40 17
e 40 18
e 40 19
e 40 20
e 40 21
e 40 22
e 40 23
e 40 24
e 40 25
e 40 26
e 40 27
e 40 28
e 40 29
e 40 30
e 40 31
e 40 32
e 41 1
e 41 2
e 41 3
e 41 8
e 41 9
e 41 10
e 41 11
e 41 12
e 41 13
e 41 14
e 41 16
e 41 17
e 41 18
e 41 19
e 41 20
e 41 21
e 41 22
e 41 23
e 41 24
e 41 25
e 41 26
e 41 27
e 41 28
e 41 29
e 41 30
e 41 31
e 41 32
e 42 1
e 42 2
e 42 3
e 42 9
e 42 10
e 42 11
e 42 12
e 42 13
e 42 14
e 42 16
e 42 17
e 42 18
e 42 19
e 42 20
e 42 21
e 42 22
e 42 23
e 42 24
e 42 25
e 42 26
e 42 27
e 42 28
e 42 29
e 42 30
e 42 31
e 42 32
e 43 1
e 43 2
e 43 3
e 43 10
e 43 11
e 43 12
e 43 13
e 43 14
e 43 16
e 43 17
e 43 18
e 43 19
e 43 20
e 43 21
e 43 22
e 43 23
e 43 24
e 43 25
e 43 26
e 43 27
e 43 28
e 43 29
e 43 30
e 43 31
e 43 32
e 44 1
e 44 2
e 44 3
e 44 11
e 44 12
e 44 13
e 44 14
e 44 16
e 44 17
e 44 18
e 44 19
e 44 20
e 44 21
e 44 22
e 44 23
e 44 24
e 44 25
e 44 26
e 44 27
e 44 28
e 44 29
e 44 30
e 44 31
e 44 32
e 45 1
e 45 2
e 45 3
e 45 11
e 45 12
e 45 13
e 45 14
e 45 17
e 45 18
e 45 19
e 45 20
e 45 21
e 45 22
e 45 23
e 45 24
e 45 25
e 45 26
e 45 27
e 45 28
e 45 29
e 45 30
e 45 31
e 45 32
e 46 1
e 46 2
e 46 3
e 46 4
e 46 5
e 46 6
e 46 7
e 46 8
e 46 9
e 46 10
e 46 11
e 46 12
e 46 13
e 46 14
e 46 15
e 46 16
e 46 17
e 46 19
e 46 20
e 46 21
e 46 22
e 46 23
e 46 24
e 46 25
e 46 26
e 47 1
e 47 2
e 47 3
e 47 4
e 47 5
e 47 6
e 47 7
e 47 8
e 47 9
e 47 10
e 47 11
e 47 12
e 47 13
e 47 14
e 47 15
e 47 16
e 47 17
e 47 20
e 47 21
e 47 22
e 47 23
e 47 24
e 47 25
e 47 26
e 48 1
e 48 2
e 48 3
e 48 4
e 48 5
e 48 6
e 48 7
e 48 8
e 48 9
e 48 10
e 48 11
e 48 12
e 48 13
e 48 14
e 48 15
e 48 16
e 48 17
e 48 21
e 48 22
e 48 23
e 48 24
e 48 25
e 48 26
e 49 1
e 49 2
e 49 3
e 49 4
e 49 5
e 49 6
e 49 7
e 49 8
e 49 9
e 49 10
e 49 11
e 49 12
e 49 13
e 49 14
e 49 15
e 49 16
e 49 17
e 49 22
e 49 23
e 49 24
e 49 25
e 49 26
e 49 33
e 50 1
e 50 2
e 50 3
e 50 4
e 50 5
e 50 6
e 50 7
e 50 8
e 50 9
e 50 10
e 50 11
e 50 12
e 50 13
e 50 14
e 50 15
e 50 16
e 50 17
e 50 23
e 50 24
e 50 25
e 50 26
e 50 33
e 50 49
e 51 1
e 51 2
e 51 3
e 51 4
e 51 5
e 51 6
e 51 7
e 51 8
e 51 9
e 51 10
e 51 11
e 51 12
e 51 13
e 51 14
e 51 15
e 51 16
e 51 17
e 51 24
e 51 25
e 51 26
e 51 33
e 51 49
e 51 50
e 52 1
e 52 2
e 52 3
e 52 4
e 52 5
e 52 6
e 52 7
e 52 8
e 52 9
e 52 10
e 52 11
e 52 12
e 52 13
e 52 14
e 52 15
e 52 16
e 52 17
e 52 25
e 52 26
e 52 33
e 52 49
e 52 50
e 52 51
e 53 1
e 53 2
e 53 3
e 53 4
e 53 5
e 53 6
e 53 7
e 53 8
e 53 9
e 53 10
e 53 11
e 53 12
e 53 13
e 53 14
e 53 15
e 53 16
e 53 17
e 53 26
e 53 33
e 53 49
e 53 50
e 53 51
e 53 52
e 54 1
e 54 2
e 54 3
e 54 4
e 54 5
e 54 6
e 54 7
e 54 8
e 54 9
e 54 10
e 54 11
e 54 12
e 54 13
e 54 14
e 54 15
e 54 16
e 54 17
e 54 33
e 54 49
e 54 50
e 54 51
e 54 52
e 54 53
e 55 1
e 55 2
e 55 3
e 55 12
e 55 13
e 55 14
e 55 17
e 55 18
e 55 19
e 55 20
e 55 21
e 55 22
e 55 23
e 55 24
e 55 25
e 55 26
e 55 27
e 55 28
e 55 29
e 55 30
e 55 31
e 55 32
e 56 1
e 56 2
e 56 3
e 56 12
e 56 13
e 56 14
e 56 17
e 56 18
e 56 19
e 56 20
e 56 21
e 56 22
e 56 23
e 56 24
e 56 25
e 56 26
e 56 27
e 56 28
e 56 29
e 56 30
e 56 31
e 56 32
e 57 1
e 57 2
e 57 3
e 57 13
e 57 14
e 57 17
e 57 18
e 57 19
e 57 20
e 57 21
e 57 22
e 57 23
e 57 24
e 57 25
e 57 26
e 57 27
e 57 28
e 57 29
e 57 30
e 57 31
e 57 32
e 58 1
e 58 2
e 58 3
e 58 13
e 58 14
e 58 17
e 58 18
e 58 19
e 58 20
e 58 21
e 58 22
e 58 23
e 58 24
e 58 25
e 58 26
e 58 27
e 58 28
e 58 29
e 58 30
e 58 31
e 58 32
e 59 1
e 59 2
e 59 3
e 59 14
e 59 17
e 59 18
e 59 19
e 59 20
e 59 21
e 59 22
e 59 23
e 59 24
e 59 25
e 59 26
e 59 27
e 59 28
e 59 29
e 59 30
e 59 31
e 59 32
e 60 1
e 60 2
e 60 3
e 60 17
e 60 18
e 60 19
e 60 20
e 60 21
e 60 22
e 60 23
e 60 24
e 60 25
e 60 26
e 60 27
e 60 28
e 60 29
e 60 30
e 60 31
e 60 32
e 60 34
e 60 35
e 60 36
e 61 1
e 61 2
e 61 3
e 61 4
e 61 5
e 61 6
e 61 7
e 61 8
e 61 9
e 61 10
e 61 11
e 61 12
e 61 13
e 61 14
e 61 15
e 61 16
e 61 17
e 61 33
e 61 49
e 61 50
e 61 51
e 61 52
e 61 53
e 61 54
e 62 1
e 62 2
e 62 17
e 62 18
e 62 19
e 62 20
e 62 21
e 62 22
e 62 23
e 62 24
e 62 25
e 62 26
e 62 27
e 62 28
e 62 29
e 62 30
e 62 31
e 62 32
e 62 60
e 63 1
e 63 2
e 63 3
e 63 4
e 63 5
e 63 6
e 63 7
e 63 8
e 63 9
e 63 10
e 63 11
e 63 12
e 63 13
e 63 14
e 63 15
e 63 16
e 63 17
e 63 33
e 63 49
e 63 50
e 63 51
e 63 52
e 63 53
e 63 54
e 63 61
e 64 1
e 64 2
e 64 3
e 64 4
e 64 5
e 64 6
e 64 7
e 64 8
e 64 9
e 64 10
e 64 11
e 64 12
e 64 13
e 64 14
e 64 15
e 64 16
e 64 17
e 64 49
e 64 50
e 64 51
e 64 52
e 64 53
e 64 54
e 64 61
e 64 63
e 65 1
e 65 2
e 65 3
e 65 4
e 65 5
e 65 6
e 65 7
e 65 8
e 65 9
e 65 10
e 65 11
e 65 12
e 65 13
e 65 14
e 65 15
e 65 16
e 65 17
e 65 33
e 65 49
e 65 50
e 65 51
e 65 52
e 65 53
e 65 54
e 65 61
e 65 63
e 66 1
e 66 2
e 66 3
e 66 4
e 66 5
e 66 6
e 66 7
e 66 8
e 66 9
e 66 10
e 66 11
e 66 12
e 66 13
e 66 14
e 66 15
e 66 16
e 66 17
e 66 33
e 66 49
e 66 50
e 66 51
e 66 52
e 66 53
e 66 54
e 66 61
e 66 63
e 66 65
e 67 1
e 67 2
e 67 3
e 67 4
e 67 5
e 67 6
e 67 7
e 67 8
e 67 9
e 67 10
e 67 11
e 67 12
e 67 13
e 67 14
e 67 15
e 67 16
e 67 17
e 67 33
e 67 49
e 67 50
e 67 51
e 67 52
e 67 53
e 67 54
e 67 61
e 67 63
e 67 65
e 67 66
e 68 1
e 68 2
e 68 17
e 68 18
e 68 19
e 68 20
e 68 21
e 68 22
e 68 23
e 68 24
e 68 25
e 68 26
e 68 27
e 68 28
e 68 29
e 68 30
e 68 31
e 68 32
e 68 60
e 69 1
e 69 2
e 69 17
e 69 18
e 69 19
e 69 20
e 69 21
e 69 22
e 69 23
e 69 24
e 69 25
e 69 26
e 69 27
e 69 28
e 69 29
e 69 30
e 69 31
e 69 32
e 69 60
e 70 1
e 70 2
e 70 3
e 70 4
e 70 5
e 70 6
e 70 7
e 70 8
e 70 9
e 70 10
e 70 11
e 70 12
e 70 13
e 70 14
e 70 15
e 70 16
e 70 17
e 70 33
e 70 49
e 70 50
e 70 51
e 70 52
e 70 53
e 70 54
e 70 61
e 70 63
e 70 65
e 70 66
e 70 67
e 71 1
e 71 2
e 71 17
e 71 18
e 71 19
e 71 20
e 71 21
e 71 22
e 71 23
e 71 24
e 71 25
e 71 26
e 71 27
e 71 28
e 71 29
e 71 30
e 71 31
e 71 32
e 71 34
e 71 35
e 71 36
e 71 60
e 71 69
e 72 1
e 72 2
e 72 17
e 72 18
e 72 19
e 72 20
e 72 21
e 72 22
e 72 23
e 72 24
e 72 25
e 72 26
e 72 27
e 72 28
e 72 29
e 72 30
e 72 31
e 72 32
e 72 60
e 72 69
e 72 71
e 73 1
e 73 2
e 73 17
e 73 18
e 73 19
e 73 20
e 73 21
e 73 22
e 73 23
e 73 24
e 73 25
e 73 26
e 73 27
e 73 28
e 73 29
e 73 30
e 73 31
e 73 32
e 73 60
e 73 69
e 73 71
e 74 1
e 74 2
e 74 17
e 74 18
e 74 19
e 74 20
e 74 21
e 74 22
e 74 23
e 74 24
e 74 25
e 74 26
e 74 27
e 74 28
e 74 29
e 74 30
e 74 31
e 74 32
e 74 60
e 74 69
e 74 71
e 74 73
e 75 1
e 75 2
e 75 17
e 75 18
e 75 19
e 75 20
e 75 21
e 75 22
e 75 23
e 75 24
e 75 25
e 75 26
e 75 27
e 75 28
e 75 29
e 75 30
e 75 31
e 75 32
e 75 60
e 75 71
e 76 1
e 76 2
e 76 17
e 76 18
e 76 19
e 76 20
e 76 21
e 76 22
e 76 23
e 76 24
e 76 25
e 76 26
e 76 27
e 76 28
e 76 29
e 76 30
e 76 31
e 76 32
e 76 60
e 76 71
e 77 1
e 77 2
e 77 17
e 77 18
e 77 19
e 77 20
e 77 21
e 77 22
e 77 23
e 77 24
e 77 25
e 77 26
e 77 27
e 77 28
e 77 29
e 77 30
e 77 31
e 77 32
e 77 60
e 77 71
e 78 1
e 78 2
e 78 17
e 78 18
e 78 19
e 78 20
e 78 21
e 78 22
e 78 23
e 78 24
e 78 25
e 78 26
e 78 27
e 78 28
e 78 29
e 78 30
e 78 31
e 78 32
e 78 60
e 78 71
e 78 77
e 79 1
e 79 2
e 79 17
e 79 18
e 79 19
e 79 20
e 79 21
e 79 22
e 79 23
e 79 24
e 79 25
e 79 26
e 79 27
e 79 28
e 79 29
e 79 30
e 79 31
e 79 32
e 79 60
e 79 71
e 79 77
e 79 78
e 80 1
e 80 2
e 80 17
e 80 18
e 80 19
e 80 20
e 80 21
e 80 22
e 80 23
e 80 24
e 80 25
e 80 26
e 80 27
e 80 28
e 80 29
e 80 30
e 80 31
e 80 32
e 80 60
e 80 71
e 80 77
e 80 78
e 80 79
e 81 1
e 81 2
e 81 17
e 81 18
e 81 19
e 81 20
e 81 21
e 81 22
e 81 23
e 81 24
e 81 25
e 81 26
e 81 27
e 81 28
e 81 29
e 81 30
e 81 31
e 81 32
e 81 60
e 81 71
e 81 77
e 81 78
e 81 79
e 81 80
e 82 1
e 82 2
e 82 17
e 82 18
e 82 19
e 82 20
e 82 21
e 82 22
e 82 23
e 82 24
e 82 25
e 82 26
e 82 27
e 82 28
e 82 29
e 82 30
e 82 31
e 82 32
e 82 60
e 82 71
e 82 78
e 82 79
e 82 80
e 82 81
e 83 1
e 83 2
e 83 17
e 83 18
e 83 19
e 83 20
e 83 21
e 83 22
e 83 23
e 83 24
e 83 25
e 83 26
e 83 27
e 83 28
e 83 29
e 83 30
e 83 31
e 83 32
e 83 34
e 83 35
e 83 36
e 83 60
e 83 71
e 83 78
e 83 79
e 83 80
e 83 81
e 83 82
e 84 1
e 84 2
e 84 17
e 84 18
e 84 19
e 84 20
e 84 21
e 84 22
e 84 23
e 84 24
e 84 25
e 84 26
e 84 27
e 84 28
e 84 29
e 84 30
e 84 31
e 84 32
e 84 60
e 84 71
e 84 79
e 84 80
e 84 81
e 84 82
e 84 83
e 85 1
e 85 2
e 85 17
e 85 18
e 85 19
e 85 20
e 85 21
e 85 22
e 85 23
e 85 24
e 85 25
e 85 26
e 85 27
e 85 28
e 85 29
e 85 30
e 85 31
e 85 32
e 85 34
e 85 35
e 85 36
e 85 60
e 85 71
e 85 80
e 85 81
e 85 82
e 85 83
e 85 84
e 86 1
e 86 2
e 86 17
e 86 18
e 86 19
e 86 20
e 86 21
e 86 22
e 86 23
e 86 24
e 86 25
e 86 26
e 86 27
e 86 28
e 86 29
e 86 30
e 86 31
e 86 32
e 86 34
e 86 35
e 86 36
e 86 60
e 86 71
e 86 81
e 86 82
e 86 83
e 86 84
e 86 85
e 87 1
e 87 2
e 87 17
e 87 18
e 87 19
e 87 20
e 87 21
e 87 22
e 87 23
e 87 24
e 87 25
e 87 26
e 87 27
e 87 28
e 87 29
e 87 30
e 87 31
e 87 32
e 87 60
e 87 71
e 87 81
e 87 82
e 87 83
e 87 85
e 87 86
e 88 1
e 88 2
e 88 17
e 88 18
e 88 19
e 88 20
e 88 21
e 88 22
e 88 23
e 88 24
e 88 25
e 88 26
e 88 27
e 88 28
e 88 29
e 88 30
e 88 31
e 88 32
e 88 60
e 88 71
e 88 82
e 88 83
e 88 85
e 88 86
e 88 87
e 89 1
e 89 2
e 89 17
e 89 18
e 89 19
e 89 20
e 89 21
e 89 22
e 89 23
e 89 24
e 89 25
e 89 26
e 89 27
e 89 28
e 89 29
e 89 30
e 89 31
e 89 32
e 89 34
e 89 35
e 89 36
e 89 60
e 89 71
e 89 82
e 89 83
e 89 85
e 89 86
e 89 87
e 89 88
e 90 1
e 90 2
e 90 17
e 90 18
e 90 19
e 90 20
e 90 21
e 90 22
e 90 23
e 90 24
e 90 25
e 90 26
e 90 27
e 90 28
e 90 29
e 90 30
e 90 31
e 90 32
e 90 34
e 90 35
e 90 36
e 90 60
e 90 71
e 90 83
e 90 85
e 90 86
e 90 87
e 90 88
e 90 89
e 91 1
e 91 2
e 91 17
e 91 18
e 91 19
e 91 20
e 91 21
e 91 22
e 91 23
e 91 24
e 91 25
e 91 26
e 91 27
e 91 28
e 91 29
e 91 30
e 91 31
e 91 32
e 91 60
e 91 71
e 91 83
e 91 85
e 91 86
e 91 87
e 91 88
e 91 89
e 91 90
e 92 1
e 92 2
e 92 17
e 92 18
e 92 19
e 92 20
e 92 21
e 92 22
e 92 23
e 92 24
e 92 25
e 92 26
e 92 27
e 92 28
e 92 29
e 92 30
e 92 31
e 92 32
e 92 34
e 92 35
e 92 36
e 92 60
e 92 71
e 92 83
e 92 85
e 92 86
e 92 87
e 92 88
e 92 89
e 92 90
e 93 1
e 93 2
e 93 17
e 93 18
e 93 19
e 93 20
e 93 21
e 93 22
e 93 23
e 93 24
e 93 25
e 93 26
e 93 27
e 93 28
e 93 29
e 93 30
e 93 31
e 93 32
e 93 34
e 93 35
e 93 36
e 93 60
e 93 71
e 93 83
e 93 85
e 93 86
e 93 88
e 93 89
e 93 90
e 93 92
e 94 1
e 94 2
e 94 17
e 94 18
e 94 19
e 94 20
e 94 21
e 94 22
e 94 23
e 94 24
e 94 25
e 94 26
e 94 27
e 94 28
e 94 29
e 94 30
e 94 31
e 94 32
e 94 60
e 94 71
e 94 83
e 94 85
e 94 86
e 94 88
e 94 89
e 94 90
e 94 92
e 94 93
e 95 1
e 95 2
e 95 17
e 95 18
e 95 19
e 95 20
e 95 21
e 95 22
e 95 23
e 95 24
e 95 25
e 95 26
e 95 27
e 95 28
e 95 29
e 95 30
e 95 31
e 95 32
e 95 34
e 95 35
e 95 36
e 95 60
e 95 71
e 95 83
e 95 85
e 95 86
e 95 88
e 95 89
e 95 90
e 95 92
e 95 93
e 96 1
e 96 2
e 96 17
e 96 18
e 96 19
e 96 20
e 96 21
e 96 22
e 96 23
e 96 24
e 96 25
e 96 26
e 96 27
e 96 28
e 96 29
e 96 30
e 96 31
e 96 32
e 96 34
e 96 35
e 96 36
e 96 60
e 96 71
e 96 83
e 96 85
e 96 86
e 96 89
e 96 90
e 96 92
e 96 93
e 96 95
e 97 1
e 97 2
e 97 17
e 97 18
e 97 19
e 97 20
e 97 21
e 97 22
e 97 23
e 97 24
e 97 25
e 97 26
e 97 27
e 97 28
e 97 29
e 97 30
e 97 31
e 97 32
e 97 60
e 97 71
e 97 83
e 97 85
e 97 86
e 97 89
e 97 90
e 97 92
e 97 93
e 97 95
e 97 96
e 99 1
e 99 2
e 99 17
e 99 18
e 99 19
e 99 20
e 99 21
e 99 22
e 99 23
e 99 24
e 99 25
e 99 26
e 99 27
e 99 28
e 99 29
e 99 30
e 99 31
e 99 32
e 99 60
e 99 71
e 99 83
e 99 85
e 99 86
e 99 89
e 99 90
e 99 92
e 99 93
e 99 95
e 99 96
e 100 1
e 100 2
e 100 17
e 100 18
e 100 19
e 100 20
e 100 21
e 100 22
e 100 23
e 100 24
e 100 25
e 100 26
e 100 27
e 100 28
e 100 29
e 100 30
e 100 31
e 100 32
e 100 60
e 100 71
e 100 83
e 100 85
e 100 86
e 100 89
e 100 90
e 100 92
e 100 93
e 100 95
e 100 96
e 100 99
e 101 1
e 101 2
e 101 3
e 101 4
e 101 5
e 101 6
e 101 7
e 101 8
e 101 9
e 101 10
e 101 11
e 101 12
e 101 13
e 101 14
e 101 15
e 101 16
e 101 17
e 101 49
e 101 50
e 101 51
e 101 52
e 101 53
e 101 54
e 101 61
e 101 63
e 101 65
e 101 66
e 101 67
e 101 70
e 102 1
e 102 2
e 102 3
e 102 4
e 102 5
e 102 6
e 102 7
e 102 8
e 102 9
e 102 10
e 102 11
e 102 12
e 102 13
e 102 14
e 102 15
e 102 16
e 102 17
e 102 49
e 102 50
e 102 51
e 102 52
e 102 53
e 102 54
e 102 61
e 102 63
e 102 65
e 102 66
e 102 67
e 102 70
e 103 1
e 103 2
e 103 3
e 103 4
e 103 5
e 103 6
e 103 7
e 103 8
e 103 9
e 103 10
e 103 11
e 103 12
e 103 13
e 103 14
e 103 15
e 103 16
e 103 17
e 103 49
e 103 50
e 103 51
e 103 52
e 103 53
e 103 54
e 103 61
e 103 63
e 103 65
e 103 66
e 103 67
e 103 70
e 104 1
e 104 2
e 104 3
e 104 4
e 104 5
e 104 6
e 104 7
e 104 8
e 104 9
e 104 10
e 104 11
e 104 12
e 104 13
e 104 14
e 104 15
e 104 16
e 104 17
e 104 49
e 104 50
e 104 51
e 104 52
e 104 53
e 104 54
e 104 61
e 104 63
e 104 65
e 104 66
e 104 67
e 104 70
e 105 1
e 105 2
e 105 3
e 105 4
e 105 5
e 105 6
e 105 7
e 105 8
e 105 9
e 105 10
e 105 11
e 105 12
e 105 13
e 105 14
e 105 15
e 105 16
e 105 17
e 105 49
e 105 50
e 105 51
e 105 52
e 105 53
e 105 54
e 105 61
e 105 63
e 105 65
e 105 66
e 105 67
e 105 70
e 106 1
e 106 2
e 106 3
e 106 4
e 106 5
e 106 6
e 106 7
e 106 8
e 106 9
e 106 10
e 106 11
e 106 12
e 106 13
e 106 14
e 106 15
e 106 16
e 106 17
e 106 49
e 106 50
e 106 51
e 106 52
e 106 53
e 106 54
e 106 61
e 106 63
e 106 65
e 106 66
e 106 67
e 106 70
e 107 1
e 107 2
e 107 3
e 107 4
e 107 5
e 107 6
e 107 7
e 107 8
e 107 9
e 107 10
e 107 11
e 107 12
e 107 13
e 107 14
e 107 15
e 107 16
e 107 17
e 107 49
e 107 50
e 107 51
e 107 52
e 107 53
e 107 54
e 107 61
e 107 63
e 107 65
e 107 66
e 107 67
e 107 70
e 108 1
e 108 2
e 108 3
e 108 4
e 108 5
e 108 6
e 108 7
e 108 8
e 108 9
e 108 10
e 108 11
e 108 12
e 108 13
e 108 14
e 108 15
e 108 16
e 108 17
e 108 33
e 108 49
e 108 50
e 108 51
e 108 52
e 108 53
e 108 54
e 108 61
e 108 63
e 108 65
e 108 66
e 108 67
e 108 70
e 110 1
e 110 2
e 110 17
e 110 18
e 110 19
e 110 20
e 110 21
e 110 22
e 110 23
e 110 24
e 110 25
e 110 26
e 110 27
e 110 28
e 110 29
e 110 30
e 110 31
e 110 32
e 110 60
e 110 71
e 110 83
e 110 85
e 110 86
e 110 89
e 110 90
e 110 92
e 110 93
e 110 95
e 110 96
e 111 1
e 111 2
e 111 17
e 111 18
e 111 19
e 111 20
e 111 21
e 111 22
e 111 23
e 111 24
e 111 25
e 111 26
e 111 27
e 111 28
e 111 29
e 111 30
e 111 31
e 111 32
e 111 60
e 111 71
e 111 83
e 111 85
e 111 86
e 111 89
e 111 90
e 111 92
e 111 93
e 111 95
e 111 96
e 111 110
e 112 1
e 112 2
e 112 3
e 112 4
e 112 5
e 112 6
e 112 7
e 112 8
e 112 9
e 112 10
e 112 11
e 112 12
e 112 13
e 112 14
e 112 15
e 112 16
e 112 17
e 112 33
e 112 49
e 112 50
e 112 51
e 112 52
e 112 53
e 112 54
e 112 61
e 112 63
e 112 65
e 112 66
e 112 67
e 112 70
e 113 1
e 113 2
e 113 3
e 113 4
e 113 5
e 113 6
e 113 7
e 113 8
e 113 9
e 113 10
e 113 11
e 113 12
e 113 13
e 113 14
e 113 15
e 113 16
e 113 17
e 113 49
e 113 50
e 113 51
e 113 52
e 113 53
e 113 54
e 113 61
e 113 63
e 113 65
e 113 66
e 113 67
e 113 70
e 114 1
e 114 2
e 114 17
e 114 18
e 114 19
e 114 20
e 114 21
e 114 22
e 114 23
e 114 24
e 114 25
e 114 26
e 114 27
e 114 28
e 114 29
e 114 30
e 114 31
e 114 32
e 114 60
e 114 71
e 114 83
e 114 85
e 114 86
e 114 89
e 114 90
e 114 92
e 114 93
e 114 95
e 114 96
e 115 1
e 115 2
e 115 17
e 115 18
e 115 19
e 115 20
e 115 21
e 115 22
e 115 23
e 115 24
e 115 25
e 115 26
e 115 27
e 115 28
e 115 29
e 115 30
e 115 31
e 115 32
e 115 60
e 115 71
e 115 83
e 115 85
e 115 86
e 115 89
e 115 90
e 115 92
e 115 93
e 115 95
e 115 96
e 115 114
e 116 1
e 116 2
e 116 17
e 116 18
e 116 19
e 116 20
e 116 21
e 116 22
e 116 23
e 116 24
e 116 25
e 116 26
e 116 27
e 116 28
e 116 29
e 116 30
e 116 31
e 116 32
e 116 60
e 116 71
e 116 83
e 116 85
e 116 86
e 116 89
e 116 90
e 116 92
e 116 93
e 116 95
e 116 96
e 116 114
e 116 115
e 117 1
e 117 2
e 117 17
e 117 18
e 117 19
e 117 20
e 117 21
e 117 22
e 117 23
e 117 24
e 117 25
e 117 26
e 117 27
e 117 28
e 117 29
e 117 30
e 117 31
e 117 32
e 117 60
e 117 71
e 117 83
e 117 85
e 117 86
e 117 89
e 117 90
e 117 92
e 117 93
e 117 95
e 117 96
e 117 114
e 117 115
e 117 116
e 118 1
e 118 2
e 118 3
e 118 4
e 118 5
e 118 6
e 118 7
e 118 8
e 118 9
e 118 10
e 118 11
e 118 12
e 118 13
e 118 14
e 118 15
e 118 16
e 118 17
e 118 49
e 118 50
e 118 51
e 118 52
e 118 53
e 118 54
e 118 61
e 118 63
e 118 65
e 118 66
e 118 67
e 118 70
e 119 1
e 119 2
e 119 3
e 119 4
e 119 5
e 119 6
e 119 7
e 119 8
e 119 9
e 119 10
e 119 11
e 119 12
e 119 13
e 119 14
e 119 15
e 119 16
e 119 17
e 119 49
e 119 50
e 119 51
e 119 52
e 119 53
e 119 54
e 119 61
e 119 63
e 119 65
e 119 66
e 119 67
e 119 70
e 119 118
e 120 1
e 120 2
e 120 3
e 120 4
e 120 5
e 120 6
e 120 7
e 120 8
e 120 9
e 120 10
e 120 11
e 120 12
e 120 13
e 120 14
e 120 15
e 120 16
e 120 17
e 120 49
e 120 50
e 120 51
e 120 52
e 120 53
e 120 54
e 120 61
e 120 63
e 120 65
e 120 66
e 120 67
e 120 70
e 121 1
e 121 2
e 121 17
e 121 18
e 121 19
e 121 20
e 121 21
e 121 22
e 121 23
e 121 24
e 121 25
e 121 26
e 121 27
e 121 28
e 121 29
e 121 30
e 121 31
e 121 32
e 121 60
e 121 71
e 121 83
e 121 85
e 121 86
e 121 89
e 121 90
e 121 92
e 121 93
e 121 95
e 121 96
e 122 1
e 122 2
e 122 17
e 122 18
e 122 19
e 122 20
e 122 21
e 122 22
e 122 23
e 122 24
e 122 25
e 122 26
e 122 27
e 122 28
e 122 29
e 122 30
e 122 31
e 122 32
e 122 60
e 122 71
e 122 83
e 122 85
e 122 86
e 122 89
e 122 90
e 122 92
e 122 93
e 122 95
e 122 96
e 123 1
e 123 2
e 123 17
e 123 18
e 123 19
e 123 20
e 123 21
e 123 22
e 123 23
e 123 24
e 123 25
e 123 26
e 123 27
e 123 28
e 123 29
e 123 30
e 123 31
e 123 32
e 123 60
e 123 71
e 123 83
e 123 85
e 123 86
e 123 89
e 123 90
e 123 92
e 123 93
e 123 95
e 123 96
e 123 122
e 124 1
e 124 2
e 124 17
e 124 18
e 124 19
e 124 20
e 124 21
e 124 22
e 124 23
e 124 24
e 124 25
e 124 26
e 124 27
e 124 28
e 124 29
e 124 30
e 124 31
e 124 32
e 124 60
e 124 71
e 124 83
e 124 85
e 124 86
e 124 89
e 124 90
e 124 92
e 124 93
e 124 95
e 124 96
e 125 1
e 125 2
e 125 17
e 125 18
e 125 19
e 125 20
e 125 21
e 125 22
e 125 23
e 125 24
e 125 25
e 125 26
e 125 27
e 125 28
e 125 29
e 125 30
e 125 31
e 125 32
e 128 1
e 128 2
e 128 17
e 128 18
e 128 19
e 128 20
e 128 21
e 128 22
e 128 23
e 128 24
e 128 25
e 128 26
e 128 27
e 128 28
e 128 29
e 128 30
e 128 31
e 128 32
e 128 34
e 128 60
e 128 71
e 128 83
e 128 85
e 128 86
e 128 89
e 128 90
e 128 92
e 128 93
e 128 95
e 128 96
e 129 1
e 129 2
e 129 3
e 129 4
e 129 5
e 129 6
e 129 7
e 129 8
e 129 9
e 129 10
e 129 11
e 129 12
e 129 13
e 129 14
e 129 15
e 129 16
e 129 17
e 129 49
e 129 50
e 129 51
e 129 52
e 129 53
e 129 54
e 129 61
e 129 63
e 129 65
e 129 66
e 129 67
e 129 70
e 130 1
e 130 2
e 130 17
e 130 18
e 130 19
e 130 20
e 130 21
e 130 22
e 130 23
e 130 24
e 130 25
e 130 26
e 130 27
e 130 28
e 130 29
e 130 30
e 130 31
e 130 32
e 130 34
e 130 60
e 130 71
e 130 83
e 130 85
e 130 86
e 130 89
e 130 90
e 130 92
e 130 93
e 130 95
e 130 96
e 130 128
e 131 1
e 131 2
e 131 3
e 131 4
e 131 5
e 131 6
e 131 7
e 131 8
e 131 9
e 131 10
e 131 11
e 131 12
e 131 13
e 131 14
e 131 15
e 131 16
e 131 17
e 131 49
e 131 50
e 131 51
e 131 52
e 131 53
e 131 54
e 131 61
e 131 63
e 131 65
e 131 66
e 131 67
e 131 70
e 131 129
e 132 1
e 132 2
e 132 17
e 132 18
e 132 19
e 132 20
e 132 21
e 132 22
e 132 23
e 132 24
e 132 25
e 132 26
e 132 27
e 132 28
e 132 29
e 132 30
e 132 31
e 132 32
e 132 34
e 132 60
e 132 71
e 132 83
e 132 85
e 132 86
e 132 89
e 132 90
e 132 92
e 132 93
e 132 95
e 132 96
e 132 128
e 133 1
e 133 2
e 133 3
e 133 4
e 133 5
e 133 6
e 133 7
e 133 8
e 133 9
e 133 10
e 133 11
e 133 12
e 133 13
e 133 14
e 133 15
e 133 16
e 133 17
e 133 49
e 133 50
e 133 51
e 133 52
e 133 53
e 133 54
e 133 61
e 133 63
e 133 65
e 133 66
e 133 67
e 133 70
e 133 129
e 133 131
e 134 1
e 134 2
e 134 3
e 134 4
e 134 5
e 134 6
e 134 7
e 134 8
e 134 9
e 134 10
e 134 11
e 134 12
e 134 13
e 134 14
e 134 15
e 134 16
e 134 17
e 134 49
e 134 50
e 134 51
e 134 52
e 134 53
e 134 54
e 134 61
e 134 63
e 134 65
e 134 66
e 134 67
e 134 70
e 134 129
e 135 1
e 135 2
e 135 3
e 135 4
e 135 5
e 135 6
e 135 7
e 135 8
e 135 9
e 135 10
e 135 11
e 135 12
e 135 13
e 135 14
e 135 15
e 135 16
e 135 17
e 135 49
e 135 50
e 135 51
e 135 52
e 135 53
e 135 54
e 135 61
e 135 63
e 135 65
e 135 66
e 135 67
e 135 70
e 136 1
e 136 2
e 136 17
e 136 18
e 136 19
e 136 20
e 136 21
e 136 22
e 136 23
e 136 24
e 136 25
e 136 26
e 136 27
e 136 28
e 136 29
e 136 30
e 136 31
e 136 32
e 136 34
e 136 60
e 136 71
e 136 83
e 136 85
e 136 86
e 136 89
e 136 90
e 136 92
e 136 93
e 136 95
e 136 96
e 136 128
e 137 1
e 137 2
e 137 3
e 137 4
e 137 5
e 137 6
e 137 7
e 137 8
e 137 9
e 137 10
e 137 11
e 137 12
e 137 13
e 137 14
e 137 15
e 137 16
e 137 17
e 137 49
e 137 50
e 137 51
e 137 52
e 137 53
e 137 54
e 137 61
e 137 63
e 137 65
e 137 66
e 137 67
e 137 70
e 137 135
e 138 1
e 138 2
e 138 3
e 138 4
e 138 5
e 138 6
e 138 7
e 138 8
e 138 9
e 138 10
e 138 11
e 138 12
e 138 13
e 138 14
e 138 15
e 138 16
e 138 17
e 138 49
e 138 50
e 138 51
e 138 52
e 138 53
e 138 54
e 138 61
e 138 63
e 138 65
e 138 66
e 138 67
e 138 70
e 140 1
e 140 2
e 140 17
e 140 18
e 140 19
e 140 20
e 140 21
e 140 22
e 140 23
e 140 24
e 140 25
e 140 26
e 140 27
e 140 28
e 140 29
e 140 30
e 140 31
e 140 32
e 140 34
e 140 60
e 140 71
e 140 83
e 140 85
e 140 86
e 140 89
e 140 90
e 140 92
e 140 93
e 140 95
e 140 96
e 143 1
e 143 2
e 143 3
e 143 4
e 143 5
e 143 6
e 143 7
e 143 8
e 143 9
e 143 10
e 143 11
e 143 12
e 143 13
e 143 14
e 143 15
e 143 16
e 143 17
e 143 49
e 143 50
e 143 51
e 143 52
e 143 53
e 143 54
e 143 61
e 143 63
e 143 65
e 143 66
e 143 67
e 143 70
e 144 1
e 144 2
e 144 3
e 144 4
e 144 5
e 144 6
e 144 7
e 144 8
e 144 9
e 144 10
e 144 11
e 144 12
e 144 13
e 144 14
e 144 15
e 144 16
e 144 17
e 144 49
e 144 50
e 144 51
e 144 52
e 144 53
e 144 54
e 144 61
e 144 63
e 144 65
e 144 66
e 144 67
e 144 70
e 144 143
e 145 1
e 145 2
e 145 3
e 145 4
e 145 5
e 145 6
e 145 7
e 145 8
e 145 9
e 145 10
e 145 11
e 145 12
e 145 13
e 145 14
e 145 15
e 145 16
e 145 17
e 145 49
e 145 50
e 145 51
e 145 52
e 145 53
e 145 54
e 145 61
e 145 63
e 145 65
e 145 66
e 145 67
e 145 70
e 145 143
e 145 144
e 146 1
e 146 2
e 146 3
e 146 4
e 146 5
e 146 6
e 146 7
e 146 8
e 146 9
e 146 10
e 146 11
e 146 12
e 146 13
e 146 14
e 146 15
e 146 16
e 146 17
e 146 49
e 146 50
e 146 51
e 146 52
e 146 53
e 146 54
e 146 61
e 146 63
e 146 65
e 146 66
e 146 67
e 146 70
e 146 143
e 147 1
e 147 2
e 147 3
e 147 4
e 147 5
e 147 6
e 147 7
e 147 8
e 147 9
e 147 10
e 147 11
e 147 12
e 147 13
e 147 14
e 147 15
e 147 16
e 147 17
e 147 49
e 147 50
e 147 51
e 147 52
e 147 53
e 147 54
e 147 61
e 147 63
e 147 65
e 147 66
e 147 67
e 147 70
e 148 1
e 148 2
e 148 3
e 148 4
e 148 5
e 148 6
e 148 7
e 148 8
e 148 9
e 148 10
e 148 11
e 148 12
e 148 13
e 148 14
e 148 15
e 148 16
e 148 17
e 148 49
e 148 50
e 148 51
e 148 52
e 148 53
e 148 54
e 148 61
e 148 63
e 148 65
e 148 66
e 148 67
e 148 70
e 148 147
e 149 1
e 149 2
e 149 3
e 149 4
e 149 5
e 149 6
e 149 7
e 149 8
e 149 9
e 149 10
e 149 11
e 149 12
e 149 13
e 149 14
e 149 15
e 149 16
e 149 17
e 149 49
e 149 50
e 149 51
e 149 52
e 149 53
e 149 54
e 149 61
e 149 63
e 149 65
e 149 66
e 149 67
e 149 70
e 151 1
e 151 2
e 151 17
e 151 18
e 151 19
e 151 20
e 151 21
e 151 22
e 151 23
e 151 24
e 151 25
e 151 26
e 151 27
e 151 28
e 151 29
e 151 30
e 151 31
e 151 32
e 151 36
e 151 60
e 151 71
e 151 83
e 151 85
e 151 86
e 151 89
e 151 90
e 151 92
e 151 93
e 151 95
e 151 96
e 154 1
e 154 2
e 154 3
e 154 4
e 154 5
e 154 6
e 154 7
e 154 8
e 154 9
e 154 10
e 154 11
e 154 12
e 154 13
e 154 14
e 154 15
e 154 16
e 154 17
e 154 49
e 154 50
e 154 51
e 154 52
e 154 53
e 154 54
e 154 61
e 154 63
e 154 65
e 154 66
e 154 67
e 154 70
e 154 108
e 155 1
e 155 2
e 155 3
e 155 4
e 155 5
e 155 6
e 155 7
e 155 8
e 155 9
e 155 10
e 155 11
e 155 12
e 155 13
e 155 14
e 155 15
e 155 16
e 155 17
e 155 49
e 155 50
e 155 51
e 155 52
e 155 53
e 155 54
e 155 61
e 155 63
e 155 65
e 155 66
e 155 67
e 155 70
e 155 108
e 156 1
e 156 2
e 156 3
e 156 4
e 156 5
e 156 6
e 156 7
e 156 8
e 156 9
e 156 10
e 156 11
e 156 12
e 156 13
e 156 14
e 156 15
e 156 16
e 156 17
e 156 49
e 156 50
e 156 51
e 156 52
e 156 53
e 156 54
e 156 61
e 156 63
e 156 65
e 156 66
e 156 67
e 156 70
e 156 108
e 157 1
e 157 2
e 157 3
e 157 4
e 157 5
e 157 6
e 157 7
e 157 8
e 157 9
e 157 10
e 157 11
e 157 12
e 157 13
e 157 14
e 157 15
e 157 16
e 157 17
e 157 49
e 157 50
e 157 51
e 157 52
e 157 53
e 157 54
e 157 61
e 157 63
e 157 65
e 157 66
e 157 67
e 157 70
e 157 108
e 158 1
e 158 2
e 158 3
e 158 4
e 158 5
e 158 6
e 158 7
e 158 8
e 158 9
e 158 10
e 158 11
e 158 12
e 158 13
e 158 14
e 158 15
e 158 16
e 158 17
e 158 49
e 158 50
e 158 51
e 158 52
e 158 53
e 158 54
e 158 61
e 158 63
e 158 65
e 158 66
e 158 67
e 158 70
e 158 108
e 160 1
e 160 2
e 160 17
e 160 18
e 160 19
e 160 20
e 160 21
e 160 22
e 160 23
e 160 24
e 160 25
e 160 26
e 160 27
e 160 28
e 160 29
e 160 30
e 160 31
e 160 32
e 160 35
e 160 60
e 160 71
e 160 83
e 160 85
e 160 86
e 160 89
e 160 90
e 160 92
e 160 93
e 160 95
e 160 96
e 162 1
e 162 2
e 162 17
e 162 18
e 162 19
e 162 20
e 162 21
e 162 22
e 162 23
e 162 24
e 162 25
e 162 26
e 162 27
e 162 28
e 162 29
e 162 30
e 162 31
e 162 32
e 163 1
e 163 2
e 163 17
e 163 18
e 163 19
e 163 20
e 163 21
e 163 22
e 163 23
e 163 24
e 163 25
e 163 26
e 163 27
e 163 28
e 163 29
e 163 30
e 163 31
e 163 32
e 163 162
e 164 1
e 164 2
e 164 3
e 164 4
e 164 5
e 164 6
e 164 7
e 164 8
e 164 9
e 164 10
e 164 11
e 164 12
e 164 13
e 164 14
e 164 15
e 164 16
e 164 17
e 164 19
e 164 20
e 164 21
e 164 22
e 164 23
e 164 24
e 164 25
e 164 26
e 164 49
e 164 50
e 164 51
e 164 52
e 164 53
e 164 54
e 165 1
e 165 2
e 165 3
e 165 4
e 165 5
e 165 6
e 165 7
e 165 8
e 165 9
e 165 10
e 165 11
e 165 12
e 165 13
e 165 14
e 165 15
e 165 16
e 165 17
e 165 20
e 165 21
e 165 22
e 165 23
e 165 24
e 165 25
e 165 26
e 165 49
e 165 50
e 165 51
e 165 52
e 165 53
e 165 54
e 165 164
e 166 1
e 166 2
e 166 3
e 166 4
e 166 5
e 166 6
e 166 7
e 166 8
e 166 9
e 166 10
e 166 11
e 166 12
e 166 13
e 166 14
e 166 15
e 166 16
e 166 17
e 166 21
e 166 22
e 166 23
e 166 24
e 166 25
e 166 26
e 166 49
e 166 50
e 166 51
e 166 52
e 166 53
e 166 54
e 166 164
e 166 165
e 167 1
e 167 2
e 167 17
e 167 18
e 167 19
e 167 20
e 167 21
e 167 22
e 167 23
e 167 24
e 167 25
e 167 26
e 167 27
e 167 28
e 167 29
e 167 30
e 167 31
e 167 32
e 168 1
e 168 2
e 168 17
e 168 18
e 168 19
e 168 20
e 168 21
e 168 22
e 168 23
e 168 24
e 168 25
e 168 26
e 168 27
e 168 28
e 168 29
e 168 30
e 168 31
e 168 32
e 168 167
e 169 1
e 169 2
e 169 17
e 169 18
e 169 19
e 169 20
e 169 21
e 169 22
e 169 23
e 169 24
e 169 25
e 169 26
e 169 27
e 169 28
e 169 29
e 169 30
e 169 31
e 169 32
e 170 1
e 170 2
e 170 16
e 170 17
e 170 18
e 170 19
e 170 20
e 170 21
e 170 22
e 170 23
e 170 24
e 170 25
e 170 26
e 170 27
e 170 28
e 170 29
e 170 30
e 170 31
e 170 32
e 170 169
e 171 1
e 171 2
e 171 10
e 171 16
e 171 17
e 171 18
e 171 19
e 171 20
e 171 21
e 171 22
e 171 23
e 171 24
e 171 25
e 171 26
e 171 27
e 171 28
e 171 29
e 171 30
e 171 31
e 171 32
e 171 169
e 171 170
e 172 1
e 172 2
e 172 9
e 172 10
e 172 16
e 172 17
e 172 18
e 172 19
e 172 20
e 172 21
e 172 22
e 172 23
e 172 24
e 172 25
e 172 26
e 172 27
e 172 28
e 172 29
e 172 30
e 172 31
e 172 32
e 172 169
e 172 170
e 172 171
e 173 1
e 173 2
e 173 8
e 173 9
e 173 10
e 173 16
e 173 17
e 173 18
e 173 19
e 173 20
e 173 21
e 173 22
e 173 23
e 173 24
e 173 25
e 173 26
e 173 27
e 173 28
e 173 29
e 173 30
e 173 31
e 173 32
e 173 169
e 173 170
e 173 171
e 173 172
e 174 1
e 174 2
e 174 7
e 174 8
e 174 9
e 174 10
e 174 16
e 174 17
e 174 18
e 174 19
e 174 20
e 174 21
e 174 22
e 174 23
e 174 24
e 174 25
e 174 26
e 174 27
e 174 28
e 174 29
e 174 30
e 174 31
e 174 32
e 174 169
e 174 170
e 174 171
e 174 172
e 174 173
e 175 1
e 175 2
e 175 6
e 175 7
e 175 8
e 175 9
e 175 10
e 175 16
e 175 17
e 175 18
e 175 19
e 175 20
e 175 21
e 175 22
e 175 23
e 175 24
e 175 25
e 175 26
e 175 27
e 175 28
e 175 29
e 175 30
e 175 31
e 175 32
e 175 169
e 175 170
e 175 171
e 175 172
e 175 173
e 175 174
e 176 1
e 176 2
e 176 5
e 176 6
e 176 7
e 176 8
e 176 9
e 176 10
e 176 16
e 176 17
e 176 18
e 176 19
e 176 20
e 176 21
e 176 22
e 176 23
e 176 24
e 176 25
e 176 26
e 176 27
e 176 28
e 176 29
e 176 30
e 176 31
e 176 32
e 176 169
e 176 170
e 176 171
e 176 172
e 176 173
e 176 174
e 176 175
e 177 1
e 177 2
e 177 17
e 177 18
e 177 19
e 177 20
e 177 21
e 177 22
e 177 23
e 177 24
e 177 25
e 177 26
e 177 27
e 177 28
e 177 29
e 177 30
e 177 31
e 177 32
e 178 1
e 178 2
e 178 17
e 178 18
e 178 19
e 178 20
e 178 21
e 178 22
e 178 23
e 178 24
e 178 25
e 178 26
e 178 27
e 178 28
e 178 29
e 178 30
e 178 31
e 178 32
e 178 177
e 179 1
e 179 2
e 179 17
e 179 18
e 179 19
e 179 20
e 179 21
e 179 22
e 179 23
e 179 24
e 179 25
e 179 26
e 179 27
e 179 28
e 179 29
e 179 30
e 179 31
e 179 32
e 179 37
e 179 178
e 180 1
e 180 2
e 180 17
e 180 18
e 180 19
e 180 20
e 180 21
e 180 22
e 180 23
e 180 24
e 180 25
e 180 26
e 180 27
e 180 28
e 180 29
e 180 30
e 180 31
e 180 32
e 180 37
e 180 179
e 183 1
e 183 2
e 183 3
e 183 4
e 183 5
e 183 6
e 183 7
e 183 8
e 183 9
e 183 10
e 183 11
e 183 12
e 183 13
e 183 14
e 183 15
e 183 16
e 183 17
e 183 49
e 183 50
e 183 51
e 183 52
e 183 53
e 183 54
e 184 1
e 184 2
e 184 3
e 184 4
e 184 5
e 184 6
e 184 7
e 184 8
e 184 9
e 184 10
e 184 11
e 184 12
e 184 13
e 184 14
e 184 15
e 184 16
e 184 17
e 184 49
e 184 50
e 184 51
e 184 52
e 184 53
e 184 54
e 186 1
e 186 2
e 186 17
e 186 18
e 186 19
e 186 20
e 186 21
e 186 22
e 186 23
e 186 24
e 186 25
e 186 26
e 186 27
e 186 28
e 186 29
e 186 30
e 186 31
e 186 32
e 186 37
e 186 179
e 186 180
e 187 1
e 187 2
e 187 17
e 187 18
e 187 19
e 187 20
e 187 21
e 187 22
e 187 23
e 187 24
e 187 25
e 187 26
e 187 27
e 187 28
e 187 29
e 187 30
e 187 31
e 187 32
e 188 1
e 188 2
e 188 17
e 188 18
e 188 19
e 188 20
e 188 21
e 188 22
e 188 23
e 188 24
e 188 25
e 188 26
e 188 27
e 188 28
e 188 29
e 188 30
e 188 31
e 188 32
